100
100
80
78
78
77
76
76
76
75
75
74
74
73
73
72
72
71
71
70
69
68
66
65
62
62
62
61
61
61
59
59
58
56
56
55
54
54
54
53
53
53
52
52
51
48
47
47
47
46
45
44
44
43
43
43
42
42
42
40
40
39
38
38
37
37
37
35
35
33
33
32
32
31
27
27
25
24
24
23
23
22
22
20
20
20
20
19
18
18
18
17
16
16
16
15
12
12
12
11
11
10
